80 400

71 44
31 7
62 46
75 41
71 31
17 28
31 3
39 3
71 20
33 29
81 29
67 27
54 23
90 30
92 41
93 40
80 1
29 47
48 34
11 11
55 14
91 49
78 26
19 32
98 32
22 44
35 48
26 18
46 49
92 20
30 33
85 8
99 44
82 16
67 41
32 22
64 25
58 47
24 42
38 45
54 11
19 26
47 15
32 1
22 11
42 8
15 36
51 32
82 23
51 27
28 39
34 45
52 9
16 18
55 13
91 39
89 32
40 44
17 6
36 48
82 23
87 12
98 43
49 15
83 27
77 28
25 20
84 3
41 8
57 5
17 18
63 33
39 50
89 35
82 34
73 45
13 10
86 9
22 43
14 45
